45 32 30 169 130 150 66 131 120 7 41 72 70 129 
24 145 152 4 186 33 167 26 161 78 91 
15 147 68 36 144 47 22 198 174 54 65 
89 153 166 46 95 6 23 96 135 133 
57 18 187 139 154 14 172 61 158 197 
19 125 42 16 
58 12 168 126 50 52 43 
143 3 76 9 148 44 
92 110 136 98 118 53 75 
71 127 189 185 
10 108 79 60 80 28 55 
73 146 115 2 34 104 84 20 192 103 101 180 
155 63 48 112 88 83 105 93 190 
142 178 39 177 97 128 
56 151 27 160 100 159 200 121 124 
199 164 170 94 
176 171 29 81 
117 182 181 
67 31 183 8 49 193 
99 5 123 116 157 179 85 37 114 
132 11 1 162 13 59 40 77 82 
175 184 191 141 107 109 86 137 74 149 38 
106 102 21 113 69 111 122 17 134 87 
173 188 119 
140 196 138 194 62 90 163 35 156 165 51 25 64 195 

